\ This file has been generated by DOcplex
\ ENCODING=ISO-8859-1
\Problem name: random_problem.lp

Minimize
 obj: 7 x0 + 6 x1 - 4 x2 - x3 + 3 x4 - 8 x5 - 10 x6 + 5 x7 - 6 x8 + 3 x9 - 9 x10
      - 6 x11 + 6 x12 + 3 x13 + 4 x14 - 7 x15 - 10 x16 - 4 x17 - 3 x18 - 2 x19
      + x20 - 3 x21 - 7 x22 - x23 + 5 x24 - 6 x25 + x26 + 2 x27 + 7 x28 - 7 x29
      - 10 x30 + 5 x31 + 10 x32 - 8 x33 + 5 x34 - 9 x35 + 9 x36 + 7 x37 - x38
      - 4 x39 + 5 x40 - 9 x41 - x42 + 5 x43 - 7 x44 + 2 x46 + 5 x47 + x48
      - 5 x49 - 9 x50 + x51 + 2 x52 - 4 x53 - 6 x54 - 5 x55 - x56 - 2 x57
      - 4 x59 + 3 x60 + 4 x61 - 9 x62 - 10 x63 + 8 x64 - x65 + 4 x66 + 10 x67
      + 8 x68 - 4 x69 - 4 x70 - 5 x71 - 8 x72 + 2 x73 - 7 x74 + [ - 4 x0*x2
      - 14 x0*x8 - 10 x0*x21 + 12 x0*x41 + 10 x0*x57 + 8 x0*x62 - 2 x0*x66
      + 20 x0*x68 - 20 x0*x69 + 2 x0*x70 - 16 x1*x11 + 4 x1*x16 + 14 x1*x19
      + 16 x1*x26 + 10 x1*x27 + 8 x1*x47 + 16 x1*x49 - 4 x1*x64 - 20 x1*x65
      + 10 x1*x66 - 10 x2*x6 - 18 x2*x8 - 12 x2*x14 + 6 x2*x17 - 2 x2*x25
      - 4 x2*x36 + 14 x2*x56 + 16 x2*x60 - 10 x2*x64 - 12 x3*x5 - 14 x3*x7
      - 18 x3*x10 + 16 x3*x13 - 8 x3*x14 - 6 x3*x18 - 10 x3*x46 + 12 x3*x64
      + 16 x3*x65 + 4 x3*x67 + 14 x4*x5 - 16 x4*x6 - 8 x4*x8 - 10 x4*x9
      + 8 x4*x27 - 16 x4*x36 - 4 x4*x37 - 16 x4*x42 - 8 x4*x47 - 16 x4*x63
      - 6 x5*x6 + 12 x5*x16 + 12 x5*x24 - 10 x5*x44 + 20 x5*x47 + 12 x5*x53
      + 14 x5*x59 - 4 x5*x68 - 18 x6*x16 - 6 x6*x18 + 18 x6*x40 - 18 x6*x61
      + 4 x6*x63 - 14 x6*x65 + 2 x6*x68 - 12 x7*x20 - 14 x7*x34 - 4 x7*x38
      - 6 x7*x42 + 18 x7*x49 - 12 x7*x52 + 20 x7*x55 + 2 x7*x66 + 4 x7*x72
      - 16 x8*x11 - 16 x8*x32 - 6 x8*x34 + 2 x8*x46 + 4 x8*x52 + 4 x8*x56
      + 12 x8*x73 - 10 x9*x11 + 18 x9*x12 + 8 x9*x24 - 2 x9*x39 - 4 x9*x41
      + 20 x9*x44 + 16 x9*x48 - 2 x9*x71 + 2 x9*x74 - 18 x10*x22 + 16 x10*x28
      - 6 x10*x36 + 18 x10*x37 - 2 x10*x45 - 14 x10*x61 - 4 x10*x62 - 2 x10*x66
      - 4 x10*x69 + 18 x11*x17 - 10 x11*x24 - 4 x11*x31 + 10 x11*x48
      + 16 x11*x51 + 14 x11*x61 - 14 x11*x65 - 10 x12*x21 - 14 x12*x28
      + 10 x12*x29 + 10 x12*x50 + 4 x12*x56 + 10 x12*x65 - 10 x12*x66
      + 18 x12*x72 - 12 x12*x73 - 14 x13*x23 + 16 x13*x26 + 20 x13*x32
      + 18 x13*x40 - 4 x13*x47 + 4 x13*x61 + 18 x13*x69 - 4 x13*x73 + 2 x13*x74
      + 4 x14*x15 - 14 x14*x19 + 2 x14*x24 - 14 x14*x29 + 18 x14*x49 + 6 x14*x51
      + 18 x14*x52 + 10 x14*x64 - 20 x15*x17 - 16 x15*x21 - 18 x15*x26
      + 10 x15*x33 + 8 x15*x40 + 8 x15*x45 - 4 x15*x46 - 8 x15*x64 + 8 x15*x72
      + 12 x16*x33 + 8 x16*x38 + 14 x16*x39 + 4 x16*x48 + 8 x16*x49 + 2 x16*x70
      + 18 x16*x73 + 14 x17*x25 - 6 x17*x44 + 8 x17*x49 + 4 x17*x63 + 20 x17*x68
      - 18 x17*x69 - 12 x17*x71 - 2 x18*x22 + 12 x18*x38 + 20 x18*x43
      + 2 x18*x47 - 4 x18*x48 + 18 x18*x54 + 8 x18*x63 + 16 x18*x72 - 8 x19*x20
      + 18 x19*x22 + 6 x19*x23 - 12 x19*x43 - 8 x19*x45 + 10 x19*x50 - 2 x19*x53
      - 16 x19*x70 - 6 x20*x40 - 18 x20*x41 - 12 x20*x42 - 18 x20*x44
      + 8 x20*x59 - 20 x20*x63 + 16 x20*x65 - 8 x20*x68 - 6 x21*x33 - 18 x21*x36
      - 10 x21*x41 - 8 x21*x53 + 18 x21*x62 + 10 x21*x63 + 12 x21*x64
      - 12 x22*x23 + 20 x22*x30 + 10 x22*x32 - 18 x22*x42 - 4 x22*x47
      - 12 x22*x70 - 20 x22*x72 + 10 x23*x32 + 4 x23*x43 - 6 x23*x50 + 6 x23*x54
      + 14 x23*x55 - 8 x23*x60 - 2 x23*x69 + 8 x24*x29 + 18 x24*x30 + 6 x24*x33
      - 20 x24*x36 + 18 x24*x41 - 16 x24*x54 + 20 x25*x31 - 16 x25*x35
      - 6 x25*x50 - 2 x25*x57 + 12 x25*x61 - 20 x25*x63 - 6 x25*x66 - 10 x25*x67
      + 8 x26*x35 - 6 x26*x37 + 8 x26*x50 - 10 x26*x51 + 10 x26*x55 + 2 x26*x61
      + 6 x26*x74 - 4 x27*x31 + 10 x27*x35 - 2 x27*x36 - 10 x27*x46 - 10 x27*x48
      + 14 x27*x54 - 18 x27*x66 - 18 x27*x73 - 12 x28*x29 + 20 x28*x34
      - 6 x28*x48 - 4 x28*x49 + 6 x28*x51 + 14 x28*x53 - 6 x28*x70 - 4 x28*x72
      - 2 x29*x33 + 4 x29*x45 - 20 x29*x47 + 18 x29*x52 + 20 x29*x55 + 4 x29*x59
      - 8 x30*x36 + 8 x30*x40 - 6 x30*x42 + 14 x30*x54 - 20 x30*x60 + 2 x30*x63
      + 14 x30*x71 - 10 x30*x73 - 20 x31*x35 - 16 x31*x45 + 14 x31*x50
      - 2 x31*x59 - 4 x31*x61 + 8 x31*x62 - 16 x31*x69 + 16 x32*x39 + 2 x32*x40
      + 16 x32*x43 + 18 x32*x44 - 8 x32*x54 - 14 x32*x68 - 14 x33*x34
      + 20 x33*x58 - 4 x33*x60 + 8 x33*x73 - 10 x33*x74 + 18 x34*x45
      + 18 x34*x51 + 20 x34*x52 + 10 x34*x59 - 10 x34*x62 - 8 x34*x73
      - 8 x35*x38 + 14 x35*x39 - 2 x35*x44 - 16 x35*x51 + 4 x35*x53 - 14 x35*x66
      - 6 x36*x42 + 18 x36*x43 - 2 x36*x44 - 10 x37*x43 - 14 x37*x44 - 6 x37*x52
      - 8 x37*x59 - 10 x37*x64 - 14 x37*x67 + 12 x37*x71 - 8 x38*x44
      + 20 x38*x49 - 18 x38*x56 - 14 x38*x57 + 14 x38*x70 + 4 x38*x74
      + 16 x39*x50 + 10 x39*x52 + 20 x39*x55 + 8 x39*x63 + 20 x39*x66
      - 16 x39*x71 - 14 x40*x43 + 12 x40*x67 - 16 x40*x70 - 14 x40*x72
      - 10 x41*x43 - 8 x41*x49 + 14 x41*x53 - 10 x41*x67 - 2 x41*x74
      + 14 x42*x55 + 14 x42*x58 + 14 x42*x62 - 20 x42*x73 + 18 x43*x69
      + 4 x43*x73 + 2 x44*x50 - 18 x45*x55 - 18 x45*x58 + 14 x45*x68 + 2 x45*x71
      + 14 x46*x47 - 16 x46*x49 - 6 x46*x55 + 4 x46*x57 - 10 x46*x62
      + 16 x46*x69 + 2 x47*x68 - 8 x47*x69 + 18 x48*x53 + 6 x48*x54 + 18 x48*x64
      - 10 x48*x70 + 12 x49*x65 - 6 x50*x65 + 6 x50*x70 - 2 x51*x56 - 12 x51*x58
      - 2 x51*x59 + 14 x51*x60 - 14 x52*x55 - 8 x52*x56 + 8 x52*x61 - 8 x53*x56
      + 14 x53*x61 + 8 x53*x71 + 14 x54*x56 + 16 x54*x58 + 20 x54*x64
      + 6 x55*x71 - 12 x56*x65 - 12 x56*x68 + 18 x57*x58 - 8 x57*x60
      + 10 x57*x62 - 4 x57*x63 + 4 x57*x68 + 8 x57*x71 + 18 x58*x59 - 14 x58*x70
      - 12 x58*x72 - 20 x58*x74 - 8 x59*x64 + 14 x59*x66 + 6 x60*x62 - 4 x60*x65
      - 14 x60*x69 + 14 x60*x71 + 20 x61*x67 - 8 x62*x72 - 2 x67*x72 - 4 x67*x74
      ]/2
Subject To
 c0: - 2 x10 - x14 + 2 x25 + 2 x26 - x34 + x36 + 2 x54 + x59 + x63 + 2 x68 = -2
 c1: - x14 - 2 x27 - x28 + 2 x34 + x53 + x55 + x58 + 2 x66 - 2 x69 + 2 x74 = 1
 c2: - x0 - x9 + x10 + 2 x15 + x24 + x36 - x42 + 2 x50 + 2 x52 - x62 = 0
 c3: - 2 x2 + 2 x11 - x25 - 2 x29 - x32 + 2 x36 - x40 - 2 x42 + 2 x65 + 2 x73
      = 1
 c4: - x7 + 2 x28 + 2 x31 - x35 + 2 x56 + 2 x57 + 2 x62 + 2 x64 + 2 x69 + x73
      = -2
 c5: - 2 x3 - 2 x4 + 2 x28 + x36 - x38 + 2 x39 + x47 + x65 - 2 x70 + 2 x74 = -1
 c6: - x10 - x29 + x30 + x32 - x41 + x43 + x56 + 2 x61 - x64 + 2 x66 = -2
 c7: - x2 + 2 x7 + x23 + x25 - 2 x26 + x33 - x42 - x50 - x66 + 2 x73 = 1
 c8: - x0 + x6 - 2 x14 - 2 x22 - x30 - 2 x31 + 2 x36 + x53 - 2 x57 + x67 = -2
 c9: 2 x16 - 2 x20 + 2 x35 + 2 x39 + 2 x46 - 2 x55 - 2 x64 + x69 - 2 x71 - 2 x73
      = 0
 c10: - x14 + x21 + 2 x28 - 2 x29 - x31 + x32 + x41 + x51 - 2 x53 + 2 x71 = 1
 c11: - 2 x4 + x12 + 2 x13 - x28 - 2 x29 + x50 - 2 x57 + 2 x65 - 2 x67 - x69 = 
      1
 c12: x16 - 2 x21 - x22 + x27 + 2 x38 - 2 x40 + x44 + 2 x58 - 2 x59 - x68 = 1
 c13: - x5 + 2 x15 + 2 x19 - 2 x26 + x30 - 2 x41 + 2 x51 - x52 + 2 x54 + x60 = 
      1
 c14: 2 x6 + x9 - 2 x13 + x15 - 2 x17 + 2 x25 + 2 x30 - 2 x62 + 2 x69 + 2 x73
       = 0

Bounds
 0 <= x0 <= 1
 0 <= x1 <= 1
 0 <= x2 <= 1
 0 <= x3 <= 1
 0 <= x4 <= 1
 0 <= x5 <= 1
 0 <= x6 <= 1
 0 <= x7 <= 1
 0 <= x8 <= 1
 0 <= x9 <= 1
 0 <= x10 <= 1
 0 <= x11 <= 1
 0 <= x12 <= 1
 0 <= x13 <= 1
 0 <= x14 <= 1
 0 <= x15 <= 1
 0 <= x16 <= 1
 0 <= x17 <= 1
 0 <= x18 <= 1
 0 <= x19 <= 1
 0 <= x20 <= 1
 0 <= x21 <= 1
 0 <= x22 <= 1
 0 <= x23 <= 1
 0 <= x24 <= 1
 0 <= x25 <= 1
 0 <= x26 <= 1
 0 <= x27 <= 1
 0 <= x28 <= 1
 0 <= x29 <= 1
 0 <= x30 <= 1
 0 <= x31 <= 1
 0 <= x32 <= 1
 0 <= x33 <= 1
 0 <= x34 <= 1
 0 <= x35 <= 1
 0 <= x36 <= 1
 0 <= x37 <= 1
 0 <= x38 <= 1
 0 <= x39 <= 1
 0 <= x40 <= 1
 0 <= x41 <= 1
 0 <= x42 <= 1
 0 <= x43 <= 1
 0 <= x44 <= 1
 0 <= x45 <= 1
 0 <= x46 <= 1
 0 <= x47 <= 1
 0 <= x48 <= 1
 0 <= x49 <= 1
 0 <= x50 <= 1
 0 <= x51 <= 1
 0 <= x52 <= 1
 0 <= x53 <= 1
 0 <= x54 <= 1
 0 <= x55 <= 1
 0 <= x56 <= 1
 0 <= x57 <= 1
 0 <= x58 <= 1
 0 <= x59 <= 1
 0 <= x60 <= 1
 0 <= x61 <= 1
 0 <= x62 <= 1
 0 <= x63 <= 1
 0 <= x64 <= 1
 0 <= x65 <= 1
 0 <= x66 <= 1
 0 <= x67 <= 1
 0 <= x68 <= 1
 0 <= x69 <= 1
 0 <= x70 <= 1
 0 <= x71 <= 1
 0 <= x72 <= 1
 0 <= x73 <= 1
 0 <= x74 <= 1

Binaries
 x0 x1 x2 x3 x4 x5 x6 x7 x8 x9 x10 x11 x12 x13 x14 x15 x16 x17 x18 x19 x20 x21
 x22 x23 x24 x25 x26 x27 x28 x29 x30 x31 x32 x33 x34 x35 x36 x37 x38 x39 x40 x41
 x42 x43 x44 x45 x46 x47 x48 x49 x50 x51 x52 x53 x54 x55 x56 x57 x58 x59 x60 x61
 x62 x63 x64 x65 x66 x67 x68 x69 x70 x71 x72 x73 x74
End
